NAME : pr144Preorder.3549.tour
COMMENT : Length = 3549
COMMENT : Found by LKH [Keld Helsgaun] Thu Apr 23 21:09:24 2020
TYPE : TOUR
DIMENSION : 144
TOUR_SECTION
1
3
4
5
6
22
23
37
38
39
40
21
20
19
8
7
9
10
11
12
13
14
15
16
17
18
41
42
43
44
45
71
72
74
76
75
73
91
92
93
94
97
98
96
95
116
117
118
119
120
121
122
123
124
125
126
127
128
129
130
131
115
132
133
134
135
136
137
138
139
140
141
142
143
144
112
114
113
111
110
109
107
106
104
105
108
86
85
84
83
82
81
80
79
87
88
103
102
101
100
99
90
89
78
77
70
69
68
67
66
65
64
63
62
61
47
46
48
59
60
58
57
56
55
54
53
52
51
50
49
33
31
32
34
30
27
35
36
24
25
26
29
28
2
-1
EOF
